; benchmark generated from python API
(set-info :status unknown)
(declare-fun x4 () Real)
(declare-fun x3 () Real)
(declare-fun bool.b19 () Bool)
(declare-fun bool.b18 () Bool)
(declare-fun bool.b17 () Bool)
(assert
 (forall ((?lambda Real) )(let (($x14193 (and (<= (* 1.0 (+ x3 (* (/ (- 1.0) 20.0) ?lambda))) 0.0) (not (<= (* 1.0 (+ x4 (* 20.0 ?lambda))) 4820.0)))))
 (let (($x8101 (exists ((?lambdaprime Real) )(! (let (($x20494 (not (<= (* 1.0 (+ x3 (* (/ (- 1.0) 20.0) ?lambdaprime))) 30.0))))
 (let (($x203 (and $x20494 (not (<= (* (- 1.0) (+ x4 (* 20.0 ?lambdaprime))) (- 4910.0))))))
 (let (($x18783 (and $x20494 (not (<= (* (- 1.0) (+ x4 (* 20.0 ?lambdaprime))) (- 4500.0))))))
 (let (($x39261 (and (not (<= (* (- 1.0) (+ x4 (* 20.0 ?lambdaprime))) (- 4100.0))) $x20494)))
 (let (($x13326 (and (not (and bool.b17 (not $x39261))) (not (and bool.b18 (not $x18783))))))
 (and (and (<= 0.0 ?lambdaprime) (<= ?lambdaprime ?lambda)) (not (and $x13326 (not (and bool.b19 (not $x203))))))))))) :qid k!20))
 ))
 (or (or $x8101 (< ?lambda 0.0)) (not $x14193)))))
 )
(check-sat)
